treewidth/data/FriendshipGraph_10.gr
p tw 21 30
1 12
1 14
2 13
2 14
13 14
15 16
15 14
16 14
17 18
17 14
18 14
19 20
19 14
20 14
21 3
21 14
3 14
4 5
4 14
5 14
6 7
6 14
7 14
8 9
8 14
9 14
10 11
10 14
11 14
12 14
