treewidth/data/FriendshipGraph_10.td
c width = 2, time = 0.000044
s td 21 3 21
b 1 14
b 2 14 14 4
b 3 14 4 5
b 4 14 14 6
b 5 14 6 7
b 6 14 14 8
b 7 14 8 9
b 8 14 14 10
b 9 14 10 11
b 10 14 14 1
b 11 14 1 12
b 12 14 14 2
b 13 14 2 13
b 14 14 14 15
b 15 14 15 16
b 16 14 14 17
b 17 14 17 18
b 18 14 14 19
b 19 14 19 20
b 20 14 14 3
b 21 14 3 21
1 2
2 3
1 4
4 5
1 6
6 7
1 8
8 9
1 10
10 11
1 12
12 13
1 14
14 15
1 16
16 17
1 18
18 19
1 20
20 21
